InboundTrucks  = 8;
OutboundTrucks = 5;
ReleaseTime    = [18,6,17,11,14,1,21,16];
UnloadTime     = [4,10,4,5,8,4,6,8];
LoadTime       = [2,5,4,3,2];
TransferTime   = [| 4,5,3,2,4 | 3,2,4,4,2 | 1,4,4,3,2 | 1,5,3,3,4 | 4,2,4,1,4 | 4,1,4,2,5 | 1,3,1,3,3 | 1,3,5,2,1 |];
